(set-logic QF_LIA)
(set-info :ran/ran2.smt2)
(set-info :smt-lib-version 2.0)
(declare-fun x1 () Int)
(declare-fun x2 () Int)
(declare-fun x3 () Int)
(declare-fun x4 () Int)
(assert (<= (+ (* 5 x1) (* 5 x2) (* 10 x3) (* (- 1) x4) ) 1412))
(assert (<= (+ (* (- 3) x1) (* 3 x2) (* 5 x3) (* (- 8) x4) ) 813))
(assert (<= (+ (* 1 x1) (* 3 x2) (* (- 3) x3) (* 10 x4) ) (- 625)))
(assert (<= (+ (* 9 x1) (* 8 x2) (* 8 x3) (* 3 x4) ) 1015))
(assert (<= (+ (* (- 10) x1) (* (- 3) x2) (* (- 4) x3) (* (- 4) x4) ) 1363))
(assert (<= (+ (* (- 4) x1) (* 9 x2) (* 2 x3) (* 1 x4) ) 1198))
(assert (<= (+ (* 7 x1) (* (- 7) x2) (* 9 x3) (* 4 x4) ) 1020))
(assert (<= (+ (* 0 x1) (* (- 10) x2) (* (- 7) x3) (* (- 7) x4) ) 563))
(assert (<= (+ (* 1 x1) (* 0 x2) (* 0 x3) (* 0 x4) ) 1412))
(assert (<= (+ (* (- 1) x1) (* 0 x2) (* 0 x3) (* 0 x4) ) 1412))
(assert (<= (+ (* 0 x1) (* 1 x2) (* 0 x3) (* 0 x4) ) 1412))
(assert (<= (+ (* 0 x1) (* (- 1) x2) (* 0 x3) (* 0 x4) ) 1412))
(assert (<= (+ (* 0 x1) (* 0 x2) (* 1 x3) (* 0 x4) ) 1412))
(assert (<= (+ (* 0 x1) (* 0 x2) (* (- 1) x3) (* 0 x4) ) 1412))
(assert (<= (+ (* 0 x1) (* 0 x2) (* 0 x3) (* 1 x4) ) 1412))
(assert (<= (+ (* 0 x1) (* 0 x2) (* 0 x3) (* (- 1) x4) ) 1412))
